Version identifier: 22.1.1.0 | 2022-11-28 | 9160aff4d
CPXPARAM_ClockType                               1
CPXPARAM_Read_DataCheck                          1
CPXPARAM_Threads                                 1
CPXPARAM_TimeLimit                               7200
CPXPARAM_MIP_Tolerances_AbsMIPGap                0
CPXPARAM_MIP_Tolerances_MIPGap                   0
CPXPARAM_MIP_Tolerances_Integrality              0
Tried aggregator 2 times.
MIP Presolve eliminated 901 rows and 29 columns.
MIP Presolve modified 453 coefficients.
Aggregator did 10 substitutions.
Reduced MIP has 138736 rows, 41046 columns, and 440555 nonzeros.
Reduced MIP has 41046 binaries, 0 generals, 0 SOSs, and 0 indicators.
Presolve time = 2.00 sec. (1093.87 ticks)
Probing time = 0.05 sec. (15.85 ticks)
Tried aggregator 1 time.
Detecting symmetries...
MIP Presolve eliminated 410 rows and 0 columns.
Reduced MIP has 138326 rows, 41046 columns, and 439325 nonzeros.
Reduced MIP has 41046 binaries, 0 generals, 0 SOSs, and 0 indicators.
Presolve time = 1.47 sec. (827.27 ticks)
Probing time = 0.05 sec. (15.40 ticks)
Clique table members: 144630.
MIP emphasis: balance optimality and feasibility.
MIP search method: dynamic search.
Parallel mode: none, using 1 thread.
Root relaxation solution time = 300.48 sec. (63160.92 ticks)

        Nodes                                         Cuts/
   Node  Left     Objective  IInf  Best Integer    Best Bound    ItCnt     Gap

      0     0    16426.0000 15605                  16426.0000    78259         
      0     0    16407.0000 14036                  Cuts: 3104    93557         
      0     0    16381.3631 16322                  Cuts: 5351   373210         
      0     0    16348.0688 16629                  Cuts: 5352   536675         

Clique cuts applied:  291
Implied bound cuts applied:  41
Zero-half cuts applied:  8019
Gomory fractional cuts applied:  11

Root node processing (before b&c):
  Real time             = 7200.12 sec. (2238037.47 ticks)
Sequential b&c:
  Real time             =    0.00 sec. (0.00 ticks)
                          ------------
Total (root+branch&cut) = 7200.12 sec. (2238037.47 ticks)
Solution is infeasible.

---------------------
@@@ MIP_time_limit_infeasible
Traceback (most recent call last):
  File "/scratch/scherif/DiverseSAT-journal_sup/DiverseSAT_Supplementary_Experiments/experiment-1/cplex/jobs/../solvers/CPLEX-DW-SE.py", line 104, in <module>
    print(f">>> Benchmark {os.path.basename(cnf_file)} k {k} OPT {int(prob.solution.get_objective_value())}"
  File "/users/scherif/.local/lib/python3.9/site-packages/cplex/_internal/_subinterfaces.py", line 7211, in get_objective_value
    return CPX_PROC.getobjval(self._env._e, self._cplex._lp)
  File "/users/scherif/.local/lib/python3.9/site-packages/cplex/_internal/_procedural.py", line 2055, in getobjval
    check_status(env, status)
  File "/users/scherif/.local/lib/python3.9/site-packages/cplex/_internal/_procedural.py", line 249, in __call__
    raise CplexSolverError(error_string, env, status)
cplex.exceptions.errors.CplexSolverError: CPLEX Error  1217: No solution exists.
